solution status: optimal solution found
objective value:                                  705
ter$A#1                                             1 	(obj:0)
ter$A#2                                             1 	(obj:0)
ter$A#3                                             1 	(obj:0)
ter$A#4                                             1 	(obj:0)
ter$A#5                                             1 	(obj:0)
ter$A#6                                             1 	(obj:0)
ter$A#7                                             1 	(obj:0)
ter$A#8                                             1 	(obj:0)
ter$A#9                                             1 	(obj:0)
ter$A#10                                            1 	(obj:0)
ter$A#11                                            1 	(obj:0)
ter$A#12                                            1 	(obj:0)
ter$A#13                                            1 	(obj:0)
ter$A#14                                            1 	(obj:0)
ter$A#15                                            1 	(obj:0)
ter$A#16                                            1 	(obj:0)
ter$A#17                                            1 	(obj:0)
ter$A#18                                            1 	(obj:0)
ter$A#19                                            1 	(obj:0)
ter$A#20                                            1 	(obj:0)
ter$A#21                                            1 	(obj:0)
ter$A#22                                            1 	(obj:0)
ter$A#23                                            1 	(obj:0)
ter$B#1                                             1 	(obj:0)
ter$B#2                                             1 	(obj:0)
ter$B#3                                             1 	(obj:0)
ter$B#4                                             1 	(obj:0)
ter$B#5                                             1 	(obj:0)
ter$B#6                                             1 	(obj:0)
ter$B#7                                             1 	(obj:0)
ter$B#8                                             1 	(obj:0)
ter$B#9                                             1 	(obj:0)
ter$B#10                                            1 	(obj:0)
ter$B#11                                            1 	(obj:0)
ter$B#12                                            1 	(obj:0)
ter$B#13                                            1 	(obj:0)
ter$B#14                                            1 	(obj:0)
ter$B#15                                            1 	(obj:0)
ter$B#16                                            1 	(obj:0)
ter$B#17                                            1 	(obj:0)
ter$B#18                                            1 	(obj:0)
ter$B#19                                            1 	(obj:0)
ter$B#20                                            1 	(obj:0)
ter$B#21                                            1 	(obj:0)
ter$B#22                                            1 	(obj:0)
ter$B#23                                            1 	(obj:0)
ter$C#1                                             1 	(obj:0)
ter$C#2                                             1 	(obj:0)
ter$C#3                                             1 	(obj:0)
ter$C#4                                             1 	(obj:0)
ter$C#5                                             1 	(obj:0)
ter$C#6                                             1 	(obj:0)
ter$C#7                                             1 	(obj:0)
ter$C#8                                             1 	(obj:0)
ter$C#9                                             1 	(obj:0)
ter$C#10                                            1 	(obj:0)
ter$C#11                                            1 	(obj:0)
ter$C#12                                            1 	(obj:0)
ter$C#13                                            1 	(obj:0)
ter$C#14                                            1 	(obj:0)
ter$C#15                                            1 	(obj:0)
ter$C#16                                            1 	(obj:0)
ter$C#17                                            1 	(obj:0)
ter$C#18                                            1 	(obj:0)
ter$C#19                                            1 	(obj:0)
ter$C#20                                            1 	(obj:0)
ter$C#21                                            1 	(obj:0)
ter$C#22                                            1 	(obj:0)
ter$C#23                                            1 	(obj:0)
ter$D#1                                             1 	(obj:0)
ter$D#2                                             1 	(obj:0)
ter$D#3                                             1 	(obj:0)
ter$D#4                                             1 	(obj:0)
ter$D#5                                             1 	(obj:0)
ter$D#6                                             1 	(obj:0)
ter$D#7                                             1 	(obj:0)
ter$D#8                                             1 	(obj:0)
ter$D#9                                             1 	(obj:0)
ter$D#10                                            1 	(obj:0)
ter$D#11                                            1 	(obj:0)
ter$D#12                                            1 	(obj:0)
ter$D#13                                            1 	(obj:0)
ter$D#14                                            1 	(obj:0)
ter$D#15                                            1 	(obj:0)
ter$D#16                                            1 	(obj:0)
ter$D#17                                            1 	(obj:0)
ter$D#18                                            1 	(obj:0)
ter$D#19                                            1 	(obj:0)
ter$D#20                                            1 	(obj:0)
ter$D#21                                            1 	(obj:0)
ter$D#22                                            1 	(obj:0)
ter$D#23                                            1 	(obj:0)
ter$E#1                                             1 	(obj:0)
ter$E#2                                             1 	(obj:0)
ter$E#3                                             1 	(obj:0)
ter$E#4                                             1 	(obj:0)
ter$E#5                                             1 	(obj:0)
ter$E#6                                             1 	(obj:0)
ter$E#7                                             1 	(obj:0)
ter$E#8                                             1 	(obj:0)
ter$E#9                                             1 	(obj:0)
ter$E#10                                            1 	(obj:0)
ter$E#11                                            1 	(obj:0)
ter$E#12                                            1 	(obj:0)
ter$E#13                                            1 	(obj:0)
ter$E#14                                            1 	(obj:0)
ter$E#15                                            1 	(obj:0)
ter$E#16                                            1 	(obj:0)
ter$E#17                                            1 	(obj:0)
ter$E#18                                            1 	(obj:0)
ter$E#19                                            1 	(obj:0)
ter$E#20                                            1 	(obj:0)
ter$E#21                                            1 	(obj:0)
ter$E#22                                            1 	(obj:0)
ter$E#23                                            1 	(obj:0)
L$A#1                                              12 	(obj:0)
L$A#2                                              12 	(obj:0)
L$A#4                                              12 	(obj:0)
L$A#5                                               8 	(obj:0)
L$A#7                                               6 	(obj:0)
L$A#8                                               6 	(obj:0)
L$A#9                                               7 	(obj:0)
L$A#14                                             12 	(obj:0)
L$A#15                                             12 	(obj:0)
L$A#17                                              6 	(obj:0)
L$A#18                                             12 	(obj:0)
L$A#21                                             12 	(obj:0)
L$B#6                                               6 	(obj:0)
L$B#8                                              12 	(obj:0)
L$B#9                                              12 	(obj:0)
L$B#10                                             12 	(obj:0)
L$B#19                                             12 	(obj:0)
L$B#20                                             12 	(obj:0)
L$C#7                                              12 	(obj:0)
L$C#10                                             12 	(obj:0)
L$C#22                                             12 	(obj:0)
L$D#6                                              12 	(obj:0)
L$D#18                                              7 	(obj:0)
L$D#19                                              6 	(obj:0)
L$D#20                                              6 	(obj:0)
L$D#21                                              6 	(obj:0)
L$E#6                                              12 	(obj:0)
L$E#7                                              12 	(obj:0)
L$E#8                                              12 	(obj:0)
L$E#9                                              11 	(obj:0)
L$E#18                                             11 	(obj:0)
L$E#19                                             12 	(obj:0)
L$E#20                                             12 	(obj:0)
L$E#21                                             12 	(obj:0)
L$E#22                                             12 	(obj:0)
S$A#1                                             120 	(obj:0)
S$A#2                                             235 	(obj:0)
S$A#3                                             225 	(obj:0)
S$A#4                                             325 	(obj:0)
S$A#5                                             365 	(obj:0)
S$A#6                                             285 	(obj:0)
S$A#7                                             185 	(obj:0)
S$A#8                                              55 	(obj:0)
S$A#14                                            115 	(obj:0)
S$A#15                                            225 	(obj:0)
S$A#16                                            300 	(obj:0)
S$A#17                                            320 	(obj:0)
S$A#18                                            360 	(obj:0)
S$A#19                                            200 	(obj:0)
S$A#20                                             10 	(obj:0)
S$A#23                                             20 	(obj:0)
S$B#2                                              80 	(obj:0)
S$B#3                                              95 	(obj:0)
S$B#4                                             170 	(obj:0)
S$B#5                                             200 	(obj:0)
S$B#6                                             240 	(obj:0)
S$B#7                                              50 	(obj:0)
S$B#10                                             80 	(obj:0)
S$B#11                                            115 	(obj:0)
S$B#12                                            210 	(obj:0)
S$B#13                                            200 	(obj:0)
S$B#14                                            180 	(obj:0)
S$B#15                                            260 	(obj:0)
S$B#16                                            240 	(obj:0)
S$B#17                                            210 	(obj:0)
S$B#18                                            135 	(obj:0)
S$B#19                                            165 	(obj:0)
S$B#20                                            110 	(obj:0)
S$B#23                                             25 	(obj:0)
S$C#1                                             100 	(obj:0)
S$C#2                                             105 	(obj:0)
S$C#3                                             110 	(obj:0)
S$C#4                                             110 	(obj:0)
S$C#5                                             100 	(obj:0)
S$C#6                                              70 	(obj:0)
S$C#7                                             120 	(obj:0)
S$C#8                                              55 	(obj:0)
S$C#10                                            110 	(obj:0)
S$C#11                                            115 	(obj:0)
S$C#12                                            125 	(obj:0)
S$C#13                                            135 	(obj:0)
S$C#14                                            140 	(obj:0)
S$C#15                                            145 	(obj:0)
S$C#16                                            145 	(obj:0)
S$C#17                                            135 	(obj:0)
S$C#18                                            155 	(obj:0)
S$C#19                                             85 	(obj:0)
S$C#22                                            110 	(obj:0)
S$C#23                                            115 	(obj:0)
S$C#24                                            105 	(obj:0)
S$D#1                                               5 	(obj:0)
S$D#2                                               5 	(obj:0)
S$D#3                                              25 	(obj:0)
S$D#4                                              25 	(obj:0)
S$D#6                                              70 	(obj:0)
S$D#7                                              85 	(obj:0)
S$D#12                                              5 	(obj:0)
S$D#13                                             10 	(obj:0)
S$D#14                                             10 	(obj:0)
S$D#15                                             10 	(obj:0)
S$D#16                                             10 	(obj:0)
S$D#18                                             25 	(obj:0)
S$D#23                                             15 	(obj:0)
S$E#1                                               5 	(obj:0)
S$E#2                                              10 	(obj:0)
S$E#3                                              55 	(obj:0)
S$E#4                                              50 	(obj:0)
S$E#6                                              40 	(obj:0)
S$E#7                                              30 	(obj:0)
S$E#8                                              10 	(obj:0)
S$E#13                                              5 	(obj:0)
S$E#14                                             10 	(obj:0)
S$E#15                                             10 	(obj:0)
S$E#16                                              5 	(obj:0)
S$E#18                                             30 	(obj:0)
S$E#19                                             20 	(obj:0)
S$E#22                                             70 	(obj:0)
S$E#23                                             50 	(obj:0)
S$E#24                                             30 	(obj:0)
U$A#1                                             120 	(obj:0)
U$A#2                                             120 	(obj:0)
U$A#4                                             120 	(obj:0)
U$A#5                                              80 	(obj:0)
U$A#7                                              60 	(obj:0)
U$A#8                                              60 	(obj:0)
U$A#9                                              70 	(obj:0)
U$A#14                                            120 	(obj:0)
U$A#15                                            120 	(obj:0)
U$A#17                                             60 	(obj:0)
U$A#18                                            120 	(obj:0)
U$A#21                                            120 	(obj:0)
U$B#6                                              60 	(obj:0)
U$B#8                                             120 	(obj:0)
U$B#9                                             120 	(obj:0)
U$B#10                                            120 	(obj:0)
U$B#19                                            120 	(obj:0)
U$B#20                                            120 	(obj:0)
U$C#7                                             120 	(obj:0)
U$C#10                                            120 	(obj:0)
U$C#22                                            120 	(obj:0)
U$D#6                                             120 	(obj:0)
U$D#18                                             70 	(obj:0)
U$D#19                                             60 	(obj:0)
U$D#20                                             60 	(obj:0)
U$D#21                                             60 	(obj:0)
U$E#6                                             120 	(obj:0)
U$E#7                                             120 	(obj:0)
U$E#8                                             120 	(obj:0)
U$E#9                                             110 	(obj:0)
U$E#18                                            110 	(obj:0)
U$E#19                                            120 	(obj:0)
U$E#20                                            120 	(obj:0)
U$E#21                                            120 	(obj:0)
U$E#22                                            120 	(obj:0)
F$A#1                                              20 	(obj:0)
F$A#2                                              20 	(obj:0)
F$A#3                                              20 	(obj:0)
F$A#4                                              20 	(obj:0)
F$A#5                                              20 	(obj:0)
F$A#6                                              20 	(obj:0)
F$A#7                                              20 	(obj:0)
F$A#8                                              20 	(obj:0)
F$A#9                                              25 	(obj:0)
F$A#10                                             60 	(obj:0)
F$A#11                                             30 	(obj:0)
F$A#12                                             20 	(obj:0)
F$A#13                                             20 	(obj:0)
F$A#14                                             20 	(obj:0)
F$A#15                                             20 	(obj:0)
F$A#16                                            115 	(obj:0)
F$A#17                                             20 	(obj:0)
F$A#18                                             20 	(obj:0)
F$A#19                                             20 	(obj:0)
F$A#20                                             20 	(obj:0)
F$A#21                                             20 	(obj:0)
F$A#22                                             60 	(obj:0)
F$A#23                                             50 	(obj:0)
F$B#1                                              30 	(obj:0)
F$B#2                                             120 	(obj:0)
F$B#3                                              55 	(obj:0)
F$B#4                                             120 	(obj:0)
F$B#5                                             120 	(obj:0)
F$B#6                                             120 	(obj:0)
F$B#7                                              20 	(obj:0)
F$B#8                                              80 	(obj:0)
F$B#9                                              50 	(obj:0)
F$B#10                                             20 	(obj:0)
F$B#11                                             75 	(obj:0)
F$B#12                                            120 	(obj:0)
F$B#13                                             20 	(obj:0)
F$B#14                                             20 	(obj:0)
F$B#15                                            120 	(obj:0)
F$B#16                                             25 	(obj:0)
F$B#17                                             60 	(obj:0)
F$B#18                                             65 	(obj:0)
F$B#19                                            120 	(obj:0)
F$B#20                                             75 	(obj:0)
F$B#21                                             60 	(obj:0)
F$B#22                                             60 	(obj:0)
F$B#23                                             65 	(obj:0)
F$C#1                                             110 	(obj:0)
F$C#2                                              20 	(obj:0)
F$C#3                                              20 	(obj:0)
F$C#4                                              20 	(obj:0)
F$C#5                                              20 	(obj:0)
F$C#6                                              20 	(obj:0)
F$C#7                                              20 	(obj:0)
F$C#8                                              40 	(obj:0)
F$C#9                                              20 	(obj:0)
F$C#10                                             20 	(obj:0)
F$C#11                                             20 	(obj:0)
F$C#12                                             20 	(obj:0)
F$C#13                                             20 	(obj:0)
F$C#14                                             20 	(obj:0)
F$C#15                                             20 	(obj:0)
F$C#16                                             20 	(obj:0)
F$C#17                                             20 	(obj:0)
F$C#18                                             70 	(obj:0)
F$C#19                                             20 	(obj:0)
F$C#20                                             20 	(obj:0)
F$C#21                                             75 	(obj:0)
F$C#22                                             20 	(obj:0)
F$C#23                                             20 	(obj:0)
F$D#1                                              20 	(obj:0)
F$D#2                                              20 	(obj:0)
F$D#3                                              40 	(obj:0)
F$D#4                                              20 	(obj:0)
F$D#5                                              20 	(obj:0)
F$D#6                                              20 	(obj:0)
F$D#7                                             120 	(obj:0)
F$D#8                                              40 	(obj:0)
F$D#9                                              85 	(obj:0)
F$D#10                                             30 	(obj:0)
F$D#11                                             20 	(obj:0)
F$D#12                                             20 	(obj:0)
F$D#13                                             20 	(obj:0)
F$D#14                                             20 	(obj:0)
F$D#15                                             20 	(obj:0)
F$D#16                                             20 	(obj:0)
F$D#17                                             35 	(obj:0)
F$D#18                                             25 	(obj:0)
F$D#19                                             20 	(obj:0)
F$D#20                                             65 	(obj:0)
F$D#21                                             25 	(obj:0)
F$D#22                                             30 	(obj:0)
F$D#23                                             35 	(obj:0)
F$E#1                                              20 	(obj:0)
F$E#2                                              20 	(obj:0)
F$E#3                                              65 	(obj:0)
F$E#4                                              20 	(obj:0)
F$E#5                                              20 	(obj:0)
F$E#6                                              20 	(obj:0)
F$E#7                                              20 	(obj:0)
F$E#8                                              20 	(obj:0)
F$E#9                                              20 	(obj:0)
F$E#10                                             70 	(obj:0)
F$E#11                                             40 	(obj:0)
F$E#12                                             20 	(obj:0)
F$E#13                                             20 	(obj:0)
F$E#14                                             20 	(obj:0)
F$E#15                                             20 	(obj:0)
F$E#16                                             20 	(obj:0)
F$E#17                                             65 	(obj:0)
F$E#18                                             20 	(obj:0)
F$E#19                                             20 	(obj:0)
F$E#20                                             20 	(obj:0)
F$E#21                                             20 	(obj:0)
F$E#22                                             20 	(obj:0)
F$E#23                                             20 	(obj:0)
stock_m                                           705 	(obj:1)
